p cnf 388 496
55 26 61 62 0
55 26 61 -62 0
55 26 -61 63 0
55 26 -61 -63 0
3 28 64 65 0
3 28 64 -65 0
3 28 -64 66 0
3 28 -64 -66 0
30 -59 67 68 0
30 -59 67 -68 0
30 -59 -67 69 0
30 -59 -67 -69 0
13 -26 57 70 0
13 -26 57 -70 0
54 -26 -55 71 0
54 -26 -55 -71 0
5 38 72 73 0
5 38 72 -73 0
5 38 -72 74 0
5 38 -72 -74 0
-14 25 -57 75 0
-14 25 -57 -75 0
48 44 76 77 0
48 44 76 -77 0
48 44 -76 78 0
48 44 -76 -78 0
37 -49 -11 79 0
37 -49 -11 -79 0
15 17 -38 80 0
15 17 -38 -80 0
-36 31 81 82 0
-36 31 81 -82 0
-36 31 -81 83 0
-36 31 -81 -83 0
34 -13 84 85 0
34 -13 84 -85 0
34 -13 -84 86 0
34 -13 -84 -86 0
49 -11 -37 87 0
49 -11 -37 -87 0
-42 24 -23 88 0
-42 24 -23 -88 0
-51 47 89 90 0
-51 47 89 -90 0
-51 47 -89 91 0
-51 47 -89 -91 0
-51 48 92 93 0
-51 48 92 -93 0
-51 48 -92 94 0
-51 48 -92 -94 0
-20 32 -4 95 0
-20 32 -4 -95 0
-51 -34 96 97 0
-51 -34 96 -97 0
-51 -34 -96 98 0
-51 -34 -96 -98 0
-57 26 99 100 0
-57 26 99 -100 0
-57 26 -99 101 0
-57 26 -99 -101 0
-9 4 102 103 0
-9 4 102 -103 0
-9 4 -102 104 0
-9 4 -102 -104 0
40 27 105 106 0
40 27 105 -106 0
40 27 -105 107 0
40 27 -105 -107 0
7 59 108 109 0
7 59 108 -109 0
7 59 -108 110 0
7 59 -108 -110 0
-60 20 -40 111 0
-60 20 -40 -111 0
-52 -58 112 113 0
-52 -58 112 -113 0
-52 -58 -112 114 0
-52 -58 -112 -114 0
53 6 48 115 0
53 6 48 -115 0
12 7 -43 116 0
12 7 -43 -116 0
20 4 117 118 0
20 4 117 -118 0
20 4 -117 119 0
20 4 -117 -119 0
9 -39 -35 120 0
9 -39 -35 -120 0
-58 35 121 122 0
-58 35 121 -122 0
-58 35 -121 123 0
-58 35 -121 -123 0
27 49 124 125 0
27 49 124 -125 0
27 49 -124 126 0
27 49 -124 -126 0
43 -12 7 127 0
43 -12 7 -127 0
56 -13 128 129 0
56 -13 128 -129 0
56 -13 -128 130 0
56 -13 -128 -130 0
-28 -29 23 131 0
-28 -29 23 -131 0
41 33 32 132 0
41 33 32 -132 0
43 -9 -21 133 0
43 -9 -21 -133 0
-21 -54 -12 134 0
-21 -54 -12 -134 0
32 -55 22 135 0
32 -55 22 -135 0
31 -2 -24 136 0
31 -2 -24 -136 0
60 -20 -40 137 0
60 -20 -40 -137 0
16 11 138 139 0
16 11 138 -139 0
16 11 -138 140 0
16 11 -138 -140 0
56 40 -34 141 0
56 40 -34 -141 0
-38 -17 -15 142 0
-38 -17 -15 -142 0
20 -32 143 144 0
20 -32 143 -144 0
20 -32 -143 145 0
20 -32 -143 -145 0
-15 5 146 147 0
-15 5 146 -147 0
-15 5 -146 148 0
-15 5 -146 -148 0
-8 47 149 150 0
-8 47 149 -150 0
-8 47 -149 151 0
-8 47 -149 -151 0
27 20 152 153 0
27 20 152 -153 0
27 20 -152 154 0
27 20 -152 -154 0
39 42 155 156 0
39 42 155 -156 0
39 42 -155 157 0
39 42 -155 -157 0
52 -35 58 158 0
52 -35 58 -158 0
41 26 159 160 0
41 26 159 -160 0
41 26 -159 161 0
41 26 -159 -161 0
-31 35 162 163 0
-31 35 162 -163 0
-31 35 -162 164 0
-31 35 -162 -164 0
-40 -45 22 165 0
-40 -45 22 -165 0
-53 -6 166 167 0
-53 -6 166 -167 0
-53 -6 -166 168 0
-53 -6 -166 -168 0
57 -6 169 170 0
57 -6 169 -170 0
57 -6 -169 171 0
57 -6 -169 -171 0
13 -32 -44 172 0
13 -32 -44 -172 0
45 22 40 173 0
45 22 40 -173 0
57 -19 174 175 0
57 -19 174 -175 0
57 -19 -174 176 0
57 -19 -174 -176 0
42 -18 177 178 0
42 -18 177 -178 0
42 -18 -177 179 0
42 -18 -177 -179 0
43 -7 12 180 0
43 -7 12 -180 0
-48 51 -44 181 0
-48 51 -44 -181 0
-9 35 182 183 0
-9 35 182 -183 0
-9 35 -182 184 0
-9 35 -182 -184 0
-40 45 -22 185 0
-40 45 -22 -185 0
-6 -54 186 187 0
-6 -54 186 -187 0
-6 -54 -186 188 0
-6 -54 -186 -188 0
-36 -2 189 190 0
-36 -2 189 -190 0
-36 -2 -189 191 0
-36 -2 -189 -191 0
55 -22 192 193 0
55 -22 192 -193 0
55 -22 -192 194 0
55 -22 -192 -194 0
29 -28 -23 195 0
29 -28 -23 -195 0
-54 35 196 197 0
-54 35 196 -197 0
-54 35 -196 198 0
-54 35 -196 -198 0
51 -27 -49 199 0
51 -27 -49 -199 0
8 51 -47 200 0
8 51 -47 -200 0
-54 21 12 201 0
-54 21 12 -201 0
39 24 202 203 0
39 24 202 -203 0
39 24 -202 204 0
39 24 -202 -204 0
-5 -50 205 206 0
-5 -50 205 -206 0
-5 -50 -205 207 0
-5 -50 -205 -207 0
1 25 208 209 0
1 25 208 -209 0
1 25 -208 210 0
1 25 -208 -210 0
-17 38 15 211 0
-17 38 15 -211 0
5 -29 24 212 0
5 -29 24 -212 0
35 2 213 214 0
35 2 213 -214 0
35 2 -213 215 0
35 2 -213 -215 0
-3 59 216 217 0
-3 59 216 -217 0
-3 59 -216 218 0
-3 59 -216 -218 0
30 46 219 220 0
30 46 219 -220 0
30 46 -219 221 0
30 46 -219 -221 0
-33 21 -41 222 0
-33 21 -41 -222 0
-36 25 223 224 0
-36 25 223 -224 0
-36 25 -223 225 0
-36 25 -223 -225 0
-19 37 226 227 0
-19 37 226 -227 0
-19 37 -226 228 0
-19 37 -226 -228 0
2 24 31 229 0
2 24 31 -229 0
-31 2 -24 230 0
-31 2 -24 -230 0
3 -59 -7 231 0
3 -59 -7 -231 0
-21 9 -43 232 0
-21 9 -43 -232 0
-24 29 5 233 0
-24 29 5 -233 0
-8 -22 234 235 0
-8 -22 234 -235 0
-8 -22 -234 236 0
-8 -22 -234 -236 0
-54 -50 237 238 0
-54 -50 237 -238 0
-54 -50 -237 239 0
-54 -50 -237 -239 0
-43 -9 21 240 0
-43 -9 21 -240 0
-36 -52 241 242 0
-36 -52 241 -242 0
-36 -52 -241 243 0
-36 -52 -241 -243 0
-42 -24 23 244 0
-42 -24 23 -244 0
44 32 245 246 0
44 32 245 -246 0
44 32 -245 247 0
44 32 -245 -247 0
42 5 248 249 0
42 5 248 -249 0
42 5 -248 250 0
42 5 -248 -250 0
-9 39 251 252 0
-9 39 251 -252 0
-9 39 -251 253 0
-9 39 -251 -253 0
14 57 254 255 0
14 57 254 -255 0
14 57 -254 256 0
14 57 -254 -256 0
29 28 23 257 0
29 28 23 -257 0
5 36 52 258 0
5 36 52 -258 0
-42 18 -5 259 0
-42 18 -5 -259 0
2 36 -31 260 0
2 36 -31 -260 0
36 -1 -25 261 0
36 -1 -25 -261 0
46 -60 45 262 0
46 -60 45 -262 0
-30 16 263 264 0
-30 16 263 -264 0
-30 16 -263 265 0
-30 16 -263 -265 0
-1 38 -15 266 0
-1 38 -15 -266 0
-5 -24 -29 267 0
-5 -24 -29 -267 0
15 1 268 269 0
15 1 268 -269 0
15 1 -268 270 0
15 1 -268 -270 0
-33 -26 -41 271 0
-33 -26 -41 -271 0
-23 42 -24 272 0
-23 42 -24 -272 0
-46 60 45 273 0
-46 60 45 -273 0
31 -2 -35 274 0
31 -2 -35 -274 0
-43 -7 -12 275 0
-43 -7 -12 -275 0
49 -51 276 277 0
49 -51 276 -277 0
49 -51 -276 278 0
49 -51 -276 -278 0
14 -25 279 280 0
14 -25 279 -280 0
14 -25 -279 281 0
14 -25 -279 -281 0
-33 -32 282 283 0
-33 -32 282 -283 0
-33 -32 -282 284 0
-33 -32 -282 -284 0
38 -15 17 285 0
38 -15 17 -285 0
37 -48 286 287 0
37 -48 286 -287 0
37 -48 -286 288 0
37 -48 -286 -288 0
34 -40 56 289 0
34 -40 56 -289 0
-19 -54 290 291 0
-19 -54 290 -291 0
-19 -54 -290 292 0
-19 -54 -290 -292 0
33 -41 -21 293 0
33 -41 -21 -293 0
11 -49 -37 294 0
11 -49 -37 -294 0
-52 -5 295 296 0
-52 -5 295 -296 0
-52 -5 -295 297 0
-52 -5 -295 -297 0
50 36 5 298 0
50 36 5 -298 0
-41 -32 299 300 0
-41 -32 299 -300 0
-41 -32 -299 301 0
-41 -32 -299 -301 0
-32 -22 302 303 0
-32 -22 302 -303 0
-32 -22 -302 304 0
-32 -22 -302 -304 0
-5 24 29 305 0
-5 24 29 -305 0
-17 -10 306 307 0
-17 -10 306 -307 0
-17 -10 -306 308 0
-17 -10 -306 -308 0
-22 40 -45 309 0
-22 40 -45 -309 0
-16 -11 30 310 0
-16 -11 30 -310 0
17 -10 311 312 0
17 -10 311 -312 0
17 -10 -311 313 0
17 -10 -311 -313 0
-50 -36 314 315 0
-50 -36 314 -315 0
-50 -36 -314 316 0
-50 -36 -314 -316 0
13 8 22 317 0
13 8 22 -317 0
-56 -51 318 319 0
-56 -51 318 -319 0
-56 -51 -318 320 0
-56 -51 -318 -320 0
20 40 60 321 0
20 40 60 -321 0
21 -4 9 322 0
21 -4 9 -322 0
43 21 9 323 0
43 21 9 -323 0
44 -13 324 325 0
44 -13 324 -325 0
44 -13 -324 326 0
44 -13 -324 -326 0
23 24 42 327 0
23 24 42 -327 0
3 -10 328 329 0
3 -10 328 -329 0
3 -10 -328 330 0
3 -10 -328 -330 0
-60 -45 -46 331 0
-60 -45 -46 -331 0
54 21 -12 332 0
54 21 -12 -332 0
49 37 11 333 0
49 37 11 -333 0
-20 -60 40 334 0
-20 -60 40 -334 0
-24 -39 -42 335 0
-24 -39 -42 -335 0
-56 13 -34 336 0
-56 13 -34 -336 0
4 -21 337 338 0
4 -21 337 -338 0
4 -21 -337 339 0
4 -21 -337 -339 0
55 -54 340 341 0
55 -54 340 -341 0
55 -54 -340 342 0
55 -54 -340 -342 0
-56 -40 -34 343 0
-56 -40 -34 -343 0
34 51 56 344 0
34 51 56 -344 0
19 54 -57 345 0
19 54 -57 -345 0
-8 -13 346 347 0
-8 -13 346 -347 0
-8 -13 -346 348 0
-8 -13 -346 -348 0
-27 -40 -20 349 0
-27 -40 -20 -349 0
10 -3 -28 350 0
10 -3 -28 -350 0
54 -57 6 351 0
54 -57 6 -351 0
46 60 -45 352 0
46 60 -45 -352 0
16 353 354 356 0
16 353 354 -356 0
16 353 -354 357 0
16 353 -354 -357 0
16 -353 355 358 0
16 -353 355 -358 0
16 -353 -355 359 0
16 -353 -355 -359 0
54 -21 12 360 0
54 -21 12 -360 0
-5 15 -38 361 0
-5 15 -38 -361 0
-30 59 -46 362 0
-30 59 -46 -362 0
26 33 363 364 0
26 33 363 -364 0
26 33 -363 365 0
26 33 -363 -365 0
-31 24 -2 366 0
-31 24 -2 -366 0
-13 -57 367 368 0
-13 -57 367 -368 0
-13 -57 -367 369 0
-13 -57 -367 -369 0
21 41 33 370 0
21 41 33 -370 0
-18 371 372 374 0
-18 371 372 -374 0
-18 371 -372 375 0
-18 371 -372 -375 0
-18 -371 373 376 0
-18 -371 373 -376 0
-18 -371 -373 377 0
-18 -371 -373 -377 0
-35 50 54 378 0
-35 50 54 -378 0
-56 40 34 379 0
-56 40 34 -379 0
-29 -23 28 380 0
-29 -23 28 -380 0
41 -21 -33 381 0
41 -21 -33 -381 0
19 48 -37 382 0
19 48 -37 -382 0
-48 -53 383 384 0
-48 -53 383 -384 0
-48 -53 -383 385 0
-48 -53 -383 -385 0
1 -38 386 387 0
1 -38 386 -387 0
1 -38 -386 388 0
1 -38 -386 -388 0

